NAME : mtspf.pid4559.gtsp.134217867.tour
COMMENT : Length = 134217867
COMMENT : Found by LKH [Keld Helsgaun] Wed Jan 15 10:35:44 2025
TYPE : TOUR
DIMENSION : 85
TOUR_SECTION
1
49
46
47
48
64
65
62
63
77
74
75
76
38
39
40
41
18
19
20
21
68
69
66
67
33
30
31
32
9
6
7
8
50
51
52
53
5
27
28
29
26
23
24
25
22
4
11
12
13
10
70
71
72
73
43
44
45
42
3
34
35
36
37
80
81
78
79
2
56
57
54
55
60
61
58
59
17
14
15
16
85
82
83
84
-1
EOF
